(set-logic ALL)
(declare-const GEN1 String)
(declare-const GEN2 String)
(declare-const BAV3 Bool)
(declare-fun x () String)
(declare-fun y () String)
(declare-fun z () String)
(declare-fun w () String)
(declare-fun w1 () String)
(declare-fun w2 () String)
(assert (= (str.++ x GEN1) (str.++ GEN2 x)))
(assert (= BAV3 (= (str.++ x GEN1) (str.++ GEN2 x))))
(check-sat)
(get-model)